--- Job Es2.gms Start 10/02/22 16:05:01 40.3.0 f227c22a DEX-DEG x86 64bit/Mac OS X
--- Applying:
    /Library/Frameworks/GAMS.framework/Versions/40/Resources/gmsprmun.txt
    /Users/marcovinciguerra/Library/Preferences/GAMS/gamsconfig.yaml
--- GAMS Parameters defined
    Input /Users/marcovinciguerra/Github/Gams/Es2.gms
    PageSize 0
    ScrDir /Users/marcovinciguerra/Github/Gams/225a/
    SysDir /Library/Frameworks/GAMS.framework/Versions/40/Resources/
    LogOption 3
    ErrMsg 1
    ErrorLog 99
    IDE 1
    LstTitleLeftAligned 1
Licensee: GAMS Demo license for marco vinciguerra        G220927|0002CO-GEN
          unibg, Italy                                             DL074718
          /Users/marcovinciguerra/Library/Application Support/GAMS/gamslice.txt
          mvincig11@gmail.com, marco vinciguerra                           
          Demo license for demonstration and instructional purposes only
Processor information: 1 socket(s), 8 core(s), and 8 thread(s) available
GAMS 40.3.0   Copyright (C) 1987-2022 GAMS Development. All rights reserved
--- Starting compilation
--- Es2.gms(80) 3 Mb
--- Starting execution: elapsed 0:00:00.005
--- Es2.gms(72) 4 Mb
--- Generating MIP model Calculus
--- Es2.gms(73) 4 Mb
---   9 rows  5 columns  25 non-zeroes
---   4 discrete-columns
--- Range statistics (absolute non-zero finite values)
--- RHS       [min, max] : [ 5.000E+02, 2.650E+03]
--- Bound     [min, max] : [        NA,        NA] - Zero values observed as well
--- Matrix    [min, max] : [ 6.000E-02, 6.000E+01]
--- Executing CPLEX (Solvelink=2): elapsed 0:00:00.011

IBM ILOG CPLEX   40.3.0 f227c22a Sep 16, 2022          DEG x86 64bit/Mac OS X 

--- *** This solver runs with a demo license. No commercial use.
--- GMO setup time: 0.00s
--- GMO memory 0.50 Mb (peak 0.50 Mb)
--- Dictionary memory 0.00 Mb
--- Cplex 22.1.0.0 link memory 0.00 Mb (peak 0.00 Mb)
--- Starting Cplex

Version identifier: 22.1.0.0 | 2022-03-09 | 1a383f8ce
CPXPARAM_Advance                                 0
CPXPARAM_Simplex_Display                         2
CPXPARAM_Threads                                 1
CPXPARAM_MIP_Display                             4
CPXPARAM_MIP_Pool_Capacity                       0
CPXPARAM_MIP_Tolerances_AbsMIPGap                0
CPXPARAM_MIP_Tolerances_MIPGap                   0
Generic callback                                 0x50
Found incumbent of value -2650.000000 after 0.00 sec. (0.00 ticks)
Tried aggregator 1 time.
MIP Presolve eliminated 7 rows and 1 columns.
MIP Presolve added 1 rows and 1 columns.
MIP Presolve modified 1 coefficients.
Reduced MIP has 2 rows, 5 columns, and 7 nonzeros.
Reduced MIP has 0 binaries, 5 generals, 0 SOSs, and 0 indicators.
Presolve time = 0.00 sec. (0.01 ticks)
Tried aggregator 1 time.
MIP Presolve eliminated 1 rows and 1 columns.
MIP Presolve added 1 rows and 1 columns.
Reduced MIP has 2 rows, 5 columns, and 7 nonzeros.
Reduced MIP has 0 binaries, 5 generals, 0 SOSs, and 0 indicators.
Presolve time = 0.00 sec. (0.00 ticks)
MIP emphasis: balance optimality and feasibility.
MIP search method: dynamic search.
Parallel mode: none, using 1 thread.
Tried aggregator 1 time.
LP Presolve eliminated 1 rows and 1 columns.
Reduced LP has 1 rows, 4 columns, and 4 nonzeros.
Presolve time = 0.00 sec. (0.00 ticks)

Iteration      Dual Objective            In Variable           Out Variable
     1           98975.000000                  x(j3)    timelimit(i3) slack
Initializing dual steep norms . . .
Root relaxation solution time = 0.00 sec. (0.00 ticks)

        Nodes                                         Cuts/
   Node  Left     Objective  IInf  Best Integer    Best Bound    ItCnt     Gap

*     0+    0                        -2650.0000   105350.0000              --- 
Found incumbent of value -2650.000000 after 0.00 sec. (0.02 ticks)
      0     0    98975.0000     1    -2650.0000    98975.0000        1     --- 
*     0+    0                        98972.0000    98975.0000             0.00%
Found incumbent of value 98972.000000 after 0.00 sec. (0.02 ticks)
      0     0        cutoff          98972.0000                      2     --- 
Elapsed time = 0.01 sec. (0.03 ticks, tree = 0.01 MB)

Root node processing (before b&c):
  Real time             =    0.01 sec. (0.03 ticks)
Sequential b&c:
  Real time             =    0.00 sec. (0.00 ticks)
                          ------------
Total (root+branch&cut) =    0.01 sec. (0.03 ticks)

--- MIP status (101): integer optimal solution.
--- Cplex Time: 0.01sec (det. 0.03 ticks)

--- Fixing integer variables and solving final LP...

Version identifier: 22.1.0.0 | 2022-03-09 | 1a383f8ce
CPXPARAM_Advance                                 2
CPXPARAM_Simplex_Display                         2
CPXPARAM_Threads                                 1
CPXPARAM_MIP_Display                             4
CPXPARAM_MIP_Pool_Capacity                       0
CPXPARAM_MIP_Tolerances_AbsMIPGap                0
CPXPARAM_MIP_Tolerances_MIPGap                   0
Tried aggregator 1 time.
LP Presolve eliminated 8 rows and 5 columns.
All rows and columns eliminated.
Presolve time = 0.00 sec. (0.00 ticks)

--- Fixed MIP status (1): optimal.
--- Cplex Time: 0.00sec (det. 0.01 ticks)


Proven optimal solution
MIP Solution:        98972.000000    (2 iterations, 0 nodes)
Final Solve:         98972.000000    (0 iterations)

Best possible:       98972.000000
Absolute gap:            0.000000
Relative gap:            0.000000

--- Reading solution for model Calculus
--- Executing after solve: elapsed 0:00:00.053
--- Es2.gms(80) 4 Mb
*** Status: Normal completion
--- Job Es2.gms Stop 10/02/22 16:05:01 elapsed 0:00:00.054
